[Header]
Format	J&M ASCII Table
Comment	COA_01_P.00039_HAL03-noFilter_UVIR600um2-UV400um0.5_24mm
Date	11:52:58.480 25/09/2024
Order	XYXY
TechType	UV
NumPoints	0
FirstX	
LastX	
XType	Label
YType	Value
ZType	Point
NumSubFile	0000061
Matrix	X vs Z
[LOGIN]
Name=JM


[AnalysisParameter]
Type	J&M Colour Analysis
Range	380-780
Observer	10 °
NormLight	D65
ColourType	Light
XLabels	DeltaE	CIELAB values.Lab	CIELAB values.a	CIELAB values.b


[Data]
0	0.004206	-0.002391	0.002625	-0.002255
1	0.016259	-0.000794	-0.005901	0.01513
2	0.021464	-0.002725	-0.006546	0.020259
3	0.027188	-0.003721	-0.006815	0.026056
4	0.029166	-0.004585	-0.007147	0.027902
5	0.03388	-0.006527	-0.006466	0.03261
6	0.038834	-0.008408	-0.00656	0.037341
7	0.042773	-0.008855	-0.007865	0.0411
8	0.045748	-0.011085	-0.006814	0.043859
9	0.049008	-0.011214	-0.007138	0.04717
10	0.051469	-0.012059	-0.007037	0.049539
11	0.053794	-0.012711	-0.006541	0.05186
12	0.055106	-0.013338	-0.006477	0.053074
13	0.057753	-0.01444	-0.005844	0.055613
14	0.062041	-0.015925	-0.006996	0.059553
15	0.064405	-0.016948	-0.006843	0.061757
16	0.065193	-0.017187	-0.006077	0.062593
17	0.066395	-0.01897	-0.006226	0.063322
18	0.068113	-0.018635	-0.006187	0.065221
19	0.07252	-0.020172	-0.007095	0.069296
20	0.072712	-0.01967	-0.007091	0.069641
21	0.07405	-0.021001	-0.005992	0.070756
22	0.075402	-0.020033	-0.006912	0.072363
23	0.079645	-0.020826	-0.008072	0.076449
24	0.078765	-0.022142	-0.005262	0.075406
25	0.080068	-0.022182	-0.00586	0.07671
26	0.081795	-0.022279	-0.007063	0.078385
27	0.081835	-0.022125	-0.005975	0.07856
28	0.083251	-0.023904	-0.004893	0.079595
29	0.085543	-0.024599	-0.005168	0.081767
30	0.087992	-0.025394	-0.006024	0.084032
31	0.087812	-0.025551	-0.005401	0.083838
32	0.089351	-0.025393	-0.004881	0.085528
33	0.091122	-0.026171	-0.005546	0.087107
34	0.095612	-0.026566	-0.006752	0.091599
35	0.092722	-0.024375	-0.006487	0.089225
36	0.090632	-0.019869	-0.006843	0.088162
37	0.095933	-0.022997	-0.00679	0.092889
38	0.101029	-0.02725	-0.006627	0.097059
39	0.100401	-0.026676	-0.006001	0.096607
40	0.100589	-0.027947	-0.005143	0.096491
41	0.103374	-0.029016	-0.005277	0.099078
42	0.104117	-0.028975	-0.00533	0.099861
43	0.106725	-0.029541	-0.005249	0.10242
44	0.107227	-0.029296	-0.005217	0.103015
45	0.109153	-0.030441	-0.004164	0.10474
46	0.11063	-0.031401	-0.004614	0.10598
47	0.113013	-0.030975	-0.005597	0.108542
48	0.110695	-0.031134	-0.004495	0.106131
49	0.115232	-0.032654	-0.005619	0.110366
50	0.117346	-0.032322	-0.005404	0.112678
51	0.119226	-0.032958	-0.005403	0.114453
52	0.117814	-0.034065	-0.002773	0.112748
53	0.122241	-0.034165	-0.00496	0.117264
54	0.121246	-0.034132	-0.003619	0.116287
55	0.122443	-0.034192	-0.004814	0.117474
56	0.121959	-0.035852	-0.004313	0.116491
57	0.12201	-0.03325	-0.00442	0.117308
58	0.12312	-0.034949	-0.003232	0.118011
59	0.125504	-0.035314	-0.004069	0.120365
60	0.130081	-0.036354	-0.004793	0.124806
