[Header]
Format	J&M ASCII Table
Comment	COA_01_P.00039_HAL03-noFilter_UVIR600um2-UV400um0.5_24mm
Date	10:55:59.071 25/09/2024
Order	XYXY
TechType	UV
NumPoints	0
FirstX	
LastX	
XType	Label
YType	Value
ZType	Point
NumSubFile	0000061
Matrix	X vs Z
[LOGIN]
Name=JM


[AnalysisParameter]
Type	J&M Colour Analysis
Range	380-780
Observer	10 °
NormLight	D65
ColourType	Light
XLabels	DeltaE	CIELAB values.Lab	CIELAB values.a	CIELAB values.b


[Data]
0	0.002105	-0.001061	-0.000202	0.001807
1	0.013855	0.005429	-0.007815	0.010071
2	0.019711	0.002894	-0.009046	0.017271
3	0.023233	0.002765	-0.009604	0.020974
4	0.023654	0.000794	-0.009156	0.021796
5	0.026931	-0.002162	-0.010066	0.024885
6	0.027257	-0.003699	-0.008997	0.025462
7	0.028663	-0.004379	-0.008741	0.026944
8	0.031215	-0.00553	-0.008688	0.029468
9	0.035465	-0.006839	-0.010481	0.033184
10	0.034968	-0.007691	-0.008712	0.03298
11	0.036717	-0.009018	-0.008482	0.034567
12	0.042473	-0.010952	-0.010624	0.039637
13	0.042998	-0.012512	-0.009356	0.04006
14	0.043146	-0.015384	-0.007673	0.039573
15	0.044428	-0.016259	-0.007489	0.040662
16	0.049072	-0.017628	-0.009202	0.044862
17	0.051785	-0.019273	-0.008873	0.047238
18	0.053626	-0.020242	-0.007818	0.04904
19	0.055486	-0.021289	-0.007448	0.050695
20	0.059203	-0.021453	-0.008464	0.054527
21	0.058849	-0.022742	-0.007341	0.053778
22	0.06213	-0.023452	-0.008421	0.056914
23	0.064461	-0.023972	-0.008051	0.059294
24	0.064328	-0.023135	-0.008239	0.059456
25	0.063434	-0.024731	-0.006797	0.058017
26	0.068218	-0.026466	-0.007958	0.062369
27	0.067678	-0.026251	-0.007361	0.061943
28	0.070339	-0.027921	-0.007769	0.064091
29	0.071916	-0.028635	-0.007362	0.065557
30	0.073059	-0.030233	-0.007393	0.066097
31	0.073716	-0.030619	-0.006339	0.066756
32	0.074705	-0.030875	-0.006657	0.0677
33	0.076394	-0.031761	-0.007645	0.069057
34	0.077104	-0.032204	-0.006967	0.06971
35	0.079276	-0.031696	-0.007351	0.072292
36	0.076642	-0.032781	-0.005679	0.069044
37	0.081402	-0.033894	-0.006591	0.073716
38	0.082288	-0.034748	-0.006314	0.074324
39	0.082965	-0.035088	-0.00706	0.074848
40	0.085624	-0.037161	-0.007629	0.076761
41	0.086251	-0.037231	-0.006922	0.077493
42	0.084385	-0.037498	-0.006601	0.075306
43	0.085954	-0.038048	-0.006727	0.07678
44	0.088167	-0.038586	-0.006598	0.079
45	0.088152	-0.039029	-0.006708	0.078756
46	0.089301	-0.039238	-0.00641	0.079962
47	0.086728	-0.037627	-0.005823	0.077923
48	0.090265	-0.037684	-0.006753	0.081744
49	0.089886	-0.0394	-0.005672	0.080592
50	0.091914	-0.039957	-0.005936	0.082561
51	0.094428	-0.039938	-0.007279	0.085256
52	0.093423	-0.040252	-0.006264	0.084074
53	0.094204	-0.039982	-0.005932	0.085092
54	0.096709	-0.041014	-0.006212	0.087361
55	0.097038	-0.042434	-0.004425	0.087156
56	0.099449	-0.042112	-0.005766	0.089908
57	0.101388	-0.043663	-0.005368	0.091347
58	0.101106	-0.042535	-0.005737	0.091544
59	0.101849	-0.043606	-0.005438	0.091882
60	0.105073	-0.045077	-0.006311	0.094703
