[Header]
Format	J&M ASCII Table
Comment	COA_01_P.00039_HAL03-noFilter_UVIR600um2-UV400um0.5_24mm
Date	12:19:28.039 25/09/2024
Order	XYXY
TechType	UV
NumPoints	0
FirstX	
LastX	
XType	Label
YType	Value
ZType	Point
NumSubFile	0000201
Matrix	X vs Z
[LOGIN]
Name=JM


[AnalysisParameter]
Type	J&M Colour Analysis
Range	380-780
Observer	10 °
NormLight	D65
ColourType	Light
XLabels	DeltaE	CIELAB values.Lab	CIELAB values.a	CIELAB values.b


[Data]
0	0.003687	-0.000208	-0.001691	0.00327
1	0.021893	0.00069	-0.010044	0.019441
2	0.02693	-0.002168	-0.009716	0.025023
3	0.030945	-0.004495	-0.01012	0.028896
4	0.035406	-0.006928	-0.008567	0.033648
5	0.04066	-0.00835	-0.01007	0.038498
6	0.048772	-0.011436	-0.011414	0.046018
7	0.051408	-0.012344	-0.010931	0.048692
8	0.054582	-0.013178	-0.010724	0.05187
9	0.058762	-0.015651	-0.010741	0.055612
10	0.063399	-0.017426	-0.010114	0.060112
11	0.06682	-0.01847	-0.009403	0.063525
12	0.069736	-0.019075	-0.008636	0.066518
13	0.075443	-0.020768	-0.009484	0.071905
14	0.076182	-0.022498	-0.009149	0.072207
15	0.077288	-0.023411	-0.008475	0.073168
16	0.080589	-0.024037	-0.008244	0.076478
17	0.083593	-0.025205	-0.008198	0.07928
18	0.084614	-0.024647	-0.008313	0.080517
19	0.087433	-0.025994	-0.009682	0.082916
20	0.088833	-0.026115	-0.009313	0.084396
21	0.088155	-0.026263	-0.008029	0.083768
22	0.086346	-0.026714	-0.0076	0.081758
23	0.091905	-0.027311	-0.009481	0.087239
24	0.093679	-0.028363	-0.009288	0.088798
25	0.092968	-0.027811	-0.008297	0.088322
26	0.095362	-0.029182	-0.008529	0.090386
27	0.096656	-0.029679	-0.008861	0.091559
28	0.099049	-0.0311	-0.00794	0.093704
29	0.101776	-0.032427	-0.00822	0.096121
30	0.103676	-0.032435	-0.008549	0.0981
31	0.107614	-0.033876	-0.00919	0.101728
32	0.107097	-0.033917	-0.007738	0.10129
33	0.107512	-0.033128	-0.008289	0.101944
34	0.108593	-0.034011	-0.007918	0.102825
35	0.111223	-0.034516	-0.007991	0.10543
36	0.112034	-0.035525	-0.007606	0.10598
37	0.114621	-0.035018	-0.008999	0.108769
38	0.115637	-0.036515	-0.007939	0.109433
39	0.116816	-0.036083	-0.008899	0.110747
40	0.117157	-0.036421	-0.007776	0.11108
41	0.119574	-0.036646	-0.008845	0.113476
42	0.120242	-0.037535	-0.009662	0.113824
43	0.120615	-0.037229	-0.009041	0.114369
44	0.122804	-0.038309	-0.008235	0.116385
45	0.122728	-0.037671	-0.009392	0.116425
46	0.12437	-0.039083	-0.008219	0.117783
47	0.126693	-0.039671	-0.009442	0.119951
48	0.130024	-0.040846	-0.009165	0.123101
49	0.128331	-0.041087	-0.008646	0.121268
50	0.128806	-0.041346	-0.008158	0.121717
51	0.129934	-0.041416	-0.008165	0.122885
52	0.134014	-0.042118	-0.009211	0.126889
53	0.131402	-0.040873	-0.008012	0.124626
54	0.132372	-0.042409	-0.0081	0.125132
55	0.133179	-0.042147	-0.007565	0.126108
56	0.136271	-0.042661	-0.008984	0.129109
57	0.135921	-0.04343	-0.008667	0.128504
58	0.138294	-0.043863	-0.009581	0.130803
59	0.137232	-0.043804	-0.008205	0.129794
60	0.139611	-0.044797	-0.009133	0.131913
61	0.140499	-0.045487	-0.008734	0.132645
62	0.141846	-0.045984	-0.008413	0.133921
63	0.140395	-0.04506	-0.008685	0.132684
64	0.142737	-0.045471	-0.009382	0.134975
65	0.144294	-0.045872	-0.008783	0.136526
66	0.145449	-0.047168	-0.009501	0.13726
67	0.144777	-0.047014	-0.00899	0.136636
68	0.145077	-0.046767	-0.008323	0.137079
69	0.146632	-0.04723	-0.009679	0.138479
70	0.146851	-0.047543	-0.009013	0.138649
71	0.149218	-0.049308	-0.007932	0.140612
72	0.149586	-0.048816	-0.008448	0.141144
73	0.152942	-0.050227	-0.010135	0.144103
74	0.153088	-0.050851	-0.009512	0.144082
75	0.154759	-0.051796	-0.008903	0.145562
76	0.15489	-0.052195	-0.008961	0.145555
77	0.1541	-0.050909	-0.008557	0.145196
78	0.153819	-0.050448	-0.008775	0.145045
79	0.155532	-0.051474	-0.009787	0.146441
80	0.155825	-0.05125	-0.00951	0.146848
81	0.155117	-0.051245	-0.009099	0.146125
82	0.157147	-0.052603	-0.009494	0.147776
83	0.158025	-0.052526	-0.009417	0.148743
84	0.157738	-0.051963	-0.009855	0.148607
85	0.159647	-0.051728	-0.009953	0.150706
86	0.163233	-0.053899	-0.010792	0.1537
87	0.161219	-0.053032	-0.009406	0.151956
88	0.163959	-0.054189	-0.010001	0.154422
89	0.162096	-0.05366	-0.009136	0.152684
90	0.162444	-0.053962	-0.008873	0.152962
91	0.164559	-0.054999	-0.009329	0.154815
92	0.166378	-0.055346	-0.010074	0.156579
93	0.166052	-0.055626	-0.009662	0.15616
94	0.166958	-0.055903	-0.009081	0.157058
95	0.166121	-0.056119	-0.008484	0.156124
96	0.166947	-0.056927	-0.0077	0.156753
97	0.173502	-0.058849	-0.009742	0.162925
98	0.175545	-0.058321	-0.009823	0.165282
99	0.173859	-0.059021	-0.009078	0.163282
100	0.174582	-0.060061	-0.008949	0.163681
101	0.177062	-0.060314	-0.009725	0.166188
102	0.177104	-0.059276	-0.009401	0.166624
103	0.176473	-0.059574	-0.00916	0.16586
104	0.174909	-0.059175	-0.008956	0.164352
105	0.177257	-0.060246	-0.009365	0.166442
106	0.175478	-0.059725	-0.009669	0.164717
107	0.174955	-0.059297	-0.008595	0.164376
108	0.176767	-0.059685	-0.009753	0.1661
109	0.176527	-0.058565	-0.010131	0.166221
110	0.178133	-0.059702	-0.010144	0.167523
111	0.175651	-0.05884	-0.009529	0.165229
112	0.17697	-0.059214	-0.009901	0.166475
113	0.176281	-0.058607	-0.009942	0.165956
114	0.177805	-0.05938	-0.010925	0.16724
115	0.177399	-0.058623	-0.009995	0.167134
116	0.17767	-0.059121	-0.010248	0.167231
117	0.179807	-0.05872	-0.01113	0.169584
118	0.178015	-0.059565	-0.009595	0.167479
119	0.179622	-0.060732	-0.009599	0.16877
120	0.181019	-0.061105	-0.009669	0.170119
121	0.18098	-0.061219	-0.009404	0.170051
122	0.183219	-0.06228	-0.009285	0.172059
123	0.185395	-0.062884	-0.010569	0.174084
124	0.185715	-0.063324	-0.009263	0.17434
125	0.187077	-0.063562	-0.010017	0.175663
126	0.185245	-0.063982	-0.008641	0.173629
127	0.187359	-0.064044	-0.010355	0.175768
128	0.189576	-0.065526	-0.00915	0.177656
129	0.187327	-0.065042	-0.008628	0.175461
130	0.189335	-0.064335	-0.010318	0.17777
131	0.189894	-0.064929	-0.009671	0.178186
132	0.189847	-0.065354	-0.008379	0.178046
133	0.191616	-0.065198	-0.009804	0.179916
134	0.191877	-0.066377	-0.00872	0.179819
135	0.193475	-0.066521	-0.010166	0.181395
136	0.192653	-0.065806	-0.009541	0.180814
137	0.1937	-0.066421	-0.009588	0.181703
138	0.192368	-0.065822	-0.009457	0.180509
139	0.192743	-0.066358	-0.009438	0.180714
140	0.193812	-0.067788	-0.00961	0.181316
141	0.195366	-0.068468	-0.009087	0.182749
142	0.195492	-0.067828	-0.008846	0.183134
143	0.194989	-0.067676	-0.008868	0.182653
144	0.195652	-0.067977	-0.009476	0.183219
145	0.190218	-0.063632	-0.008435	0.179061
146	0.197382	-0.067149	-0.009673	0.185356
147	0.19754	-0.067822	-0.008973	0.185315
148	0.19899	-0.067663	-0.00992	0.18687
149	0.199076	-0.068151	-0.010273	0.186765
150	0.199194	-0.068062	-0.009568	0.186961
151	0.199135	-0.068651	-0.009258	0.186697
152	0.199757	-0.068715	-0.009504	0.187325
153	0.197959	-0.068225	-0.009217	0.185602
154	0.197993	-0.069656	-0.008237	0.185153
155	0.200825	-0.069775	-0.010306	0.188031
156	0.201396	-0.070244	-0.009656	0.188502
157	0.200488	-0.069284	-0.010019	0.187869
158	0.200005	-0.070616	-0.007785	0.186962
159	0.201608	-0.070253	-0.009284	0.188744
160	0.201903	-0.071248	-0.00944	0.188679
161	0.201526	-0.070464	-0.008359	0.188621
162	0.202286	-0.070321	-0.009701	0.189421
163	0.201257	-0.071353	-0.008394	0.187996
164	0.204123	-0.071713	-0.010306	0.190833
165	0.203275	-0.071537	-0.009371	0.19004
166	0.203547	-0.071353	-0.009386	0.190399
167	0.205499	-0.071733	-0.010281	0.192298
168	0.20629	-0.072199	-0.010697	0.192947
169	0.20681	-0.072468	-0.009907	0.193444
170	0.204945	-0.071225	-0.009947	0.191913
171	0.205225	-0.072526	-0.009335	0.191756
172	0.20554	-0.072714	-0.008726	0.19205
173	0.203194	-0.07273	-0.007851	0.18957
174	0.206475	-0.073334	-0.009201	0.192793
175	0.2074	-0.074153	-0.009822	0.193441
176	0.20611	-0.073403	-0.008837	0.192393
177	0.207831	-0.074068	-0.008915	0.19398
178	0.208821	-0.074501	-0.00876	0.194883
179	0.210169	-0.075855	-0.008919	0.1958
180	0.209723	-0.075686	-0.009882	0.19534
181	0.210444	-0.075606	-0.009222	0.196177
182	0.211421	-0.076585	-0.008739	0.196869
183	0.211394	-0.076125	-0.009436	0.196986
184	0.213422	-0.076093	-0.010085	0.199141
185	0.213406	-0.077497	-0.009306	0.19862
186	0.212339	-0.077913	-0.008227	0.197357
187	0.214858	-0.077978	-0.0094	0.199987
188	0.214595	-0.078811	-0.00939	0.199378
189	0.213722	-0.078217	-0.008729	0.198703
190	0.213466	-0.077972	-0.008582	0.198531
191	0.214728	-0.078277	-0.008486	0.199772
192	0.216416	-0.078847	-0.008536	0.201361
193	0.21638	-0.079344	-0.008807	0.201115
194	0.218161	-0.080221	-0.008939	0.20268
195	0.217945	-0.080174	-0.0083	0.202493
196	0.218769	-0.081081	-0.008343	0.203017
197	0.220216	-0.081057	-0.008327	0.204586
198	0.221664	-0.081911	-0.008492	0.205799
199	0.219908	-0.081229	-0.007061	0.204234
200	0.221047	-0.081785	-0.007484	0.205224
