[Header]
Format	J&M ASCII Table
Comment	COA_01_P.00039_HAL03-noFilter_UVIR600um2-UV400um0.5_24mm
Date	11:25:28.998 25/09/2024
Order	XYXY
TechType	UV
NumPoints	0
FirstX	
LastX	
XType	Label
YType	Value
ZType	Point
NumSubFile	0000061
Matrix	X vs Z
[LOGIN]
Name=JM


[AnalysisParameter]
Type	J&M Colour Analysis
Range	380-780
Observer	10 °
NormLight	D65
ColourType	Light
XLabels	DeltaE	CIELAB values.Lab	CIELAB values.a	CIELAB values.b


[Data]
0	0.004959	-0.002817	-0.000236	0.004074
1	0.024128	0.001296	-0.00906	0.022325
2	0.033423	-0.002371	-0.009747	0.031882
3	0.040418	-0.004335	-0.010603	0.03876
4	0.041975	-0.006062	-0.009871	0.040345
5	0.047459	-0.00924	-0.009897	0.045487
6	0.053234	-0.011639	-0.009017	0.051158
7	0.056108	-0.01236	-0.010571	0.053699
8	0.061276	-0.014222	-0.010955	0.058588
9	0.062847	-0.014284	-0.011374	0.060136
10	0.065271	-0.015845	-0.010274	0.06248
11	0.069701	-0.017963	-0.01081	0.066473
12	0.071438	-0.019113	-0.010216	0.068072
13	0.075443	-0.020107	-0.010609	0.071936
14	0.077575	-0.021534	-0.009779	0.073882
15	0.077873	-0.021268	-0.010003	0.074241
16	0.081619	-0.022036	-0.01013	0.077933
17	0.083518	-0.022084	-0.010094	0.07991
18	0.083665	-0.023927	-0.009264	0.079634
19	0.088602	-0.025226	-0.010744	0.084252
20	0.086993	-0.025613	-0.009253	0.08262
21	0.089562	-0.026492	-0.010175	0.084947
22	0.092538	-0.027101	-0.009954	0.087919
23	0.095638	-0.027662	-0.010732	0.090919
24	0.092597	-0.029299	-0.008098	0.087465
25	0.096862	-0.028932	-0.009585	0.091941
26	0.097766	-0.029487	-0.009148	0.092764
27	0.098973	-0.030147	-0.008593	0.093878
28	0.100502	-0.030849	-0.008578	0.095265
29	0.102949	-0.031591	-0.009878	0.097483
30	0.102897	-0.031769	-0.008866	0.097468
31	0.10501	-0.032516	-0.00889	0.099452
32	0.106053	-0.033417	-0.009273	0.100223
33	0.10721	-0.033732	-0.008465	0.101412
34	0.11176	-0.035879	-0.009685	0.1054
35	0.111394	-0.034459	-0.009189	0.10553
36	0.11149	-0.033555	-0.009021	0.105937
37	0.114627	-0.034876	-0.009575	0.108772
38	0.11601	-0.034144	-0.009472	0.110466
39	0.116373	-0.035701	-0.008561	0.110431
40	0.118299	-0.037329	-0.008194	0.111955
41	0.119401	-0.037618	-0.007524	0.11307
42	0.11967	-0.036364	-0.008298	0.113709
43	0.120704	-0.037714	-0.007644	0.114406
44	0.121953	-0.037185	-0.008109	0.115862
45	0.124223	-0.039258	-0.008171	0.117573
46	0.125658	-0.039125	-0.008409	0.119116
47	0.124984	-0.038047	-0.007868	0.118792
48	0.125473	-0.038254	-0.006547	0.11932
49	0.128877	-0.03951	-0.008176	0.122398
50	0.129499	-0.038576	-0.007985	0.123362
51	0.130252	-0.039299	-0.007592	0.12395
52	0.130014	-0.039272	-0.00668	0.123761
53	0.132506	-0.040256	-0.007446	0.126024
54	0.133683	-0.041016	-0.006922	0.127047
55	0.134672	-0.041766	-0.007358	0.12782
56	0.134957	-0.042256	-0.006358	0.128013
57	0.135859	-0.042415	-0.007351	0.128859
58	0.137024	-0.043244	-0.00669	0.129849
59	0.139778	-0.045829	-0.00619	0.131906
60	0.139726	-0.044918	-0.006583	0.132146
